p cnf 320 2311
-1 -2 0
-1 -3 0
-1 -4 0
-1 -5 0
-2 -3 0
-2 -4 0
-2 -5 0
-3 -4 0
-3 -5 0
-4 -5 0
-1 41 0
-1 6 0
-2 42 0
-2 7 0
-3 43 0
-3 8 0
-4 44 0
-4 9 0
-5 45 0
-5 10 0
-6 -7 0
-6 -8 0
-6 -9 0
-6 -10 0
-7 -8 0
-7 -9 0
-7 -10 0
-8 -9 0
-8 -10 0
-9 -10 0
-6 46 1 0
-6 46 11 0
-6 1 11 0
-7 47 2 0
-7 47 12 0
-7 2 12 0
-8 48 3 0
-8 48 13 0
-8 3 13 0
-9 49 4 0
-9 49 14 0
-9 4 14 0
-10 50 5 0
-10 50 15 0
-10 5 15 0
-6 -46 -1 -11 0
-7 -47 -2 -12 0
-8 -48 -3 -13 0
-9 -49 -4 -14 0
-10 -50 -5 -15 0
-11 -12 0
-11 -13 0
-11 -14 0
-11 -15 0
-12 -13 0
-12 -14 0
-12 -15 0
-13 -14 0
-13 -15 0
-14 -15 0
-11 51 6 0
-11 51 16 0
-11 6 16 0
-12 52 7 0
-12 52 17 0
-12 7 17 0
-13 53 8 0
-13 53 18 0
-13 8 18 0
-14 54 9 0
-14 54 19 0
-14 9 19 0
-15 55 10 0
-15 55 20 0
-15 10 20 0
-11 -51 -6 -16 0
-12 -52 -7 -17 0
-13 -53 -8 -18 0
-14 -54 -9 -19 0
-15 -55 -10 -20 0
-16 -17 0
-16 -18 0
-16 -19 0
-16 -20 0
-17 -18 0
-17 -19 0
-17 -20 0
-18 -19 0
-18 -20 0
-19 -20 0
-16 56 11 0
-16 56 21 0
-16 11 21 0
-17 57 12 0
-17 57 22 0
-17 12 22 0
-18 58 13 0
-18 58 23 0
-18 13 23 0
-19 59 14 0
-19 59 24 0
-19 14 24 0
-20 60 15 0
-20 60 25 0
-20 15 25 0
-16 -56 -11 -21 0
-17 -57 -12 -22 0
-18 -58 -13 -23 0
-19 -59 -14 -24 0
-20 -60 -15 -25 0
-21 -22 0
-21 -23 0
-21 -24 0
-21 -25 0
-22 -23 0
-22 -24 0
-22 -25 0
-23 -24 0
-23 -25 0
-24 -25 0
-21 61 16 0
-21 61 26 0
-21 16 26 0
-22 62 17 0
-22 62 27 0
-22 17 27 0
-23 63 18 0
-23 63 28 0
-23 18 28 0
-24 64 19 0
-24 64 29 0
-24 19 29 0
-25 65 20 0
-25 65 30 0
-25 20 30 0
-21 -61 -16 -26 0
-22 -62 -17 -27 0
-23 -63 -18 -28 0
-24 -64 -19 -29 0
-25 -65 -20 -30 0
-26 -27 0
-26 -28 0
-26 -29 0
-26 -30 0
-27 -28 0
-27 -29 0
-27 -30 0
-28 -29 0
-28 -30 0
-29 -30 0
-26 66 21 0
-26 66 31 0
-26 21 31 0
-27 67 22 0
-27 67 32 0
-27 22 32 0
-28 68 23 0
-28 68 33 0
-28 23 33 0
-29 69 24 0
-29 69 34 0
-29 24 34 0
-30 70 25 0
-30 70 35 0
-30 25 35 0
-26 -66 -21 -31 0
-27 -67 -22 -32 0
-28 -68 -23 -33 0
-29 -69 -24 -34 0
-30 -70 -25 -35 0
-31 -32 0
-31 -33 0
-31 -34 0
-31 -35 0
-32 -33 0
-32 -34 0
-32 -35 0
-33 -34 0
-33 -35 0
-34 -35 0
-31 71 26 0
-31 71 36 0
-31 26 36 0
-32 72 27 0
-32 72 37 0
-32 27 37 0
-33 73 28 0
-33 73 38 0
-33 28 38 0
-34 74 29 0
-34 74 39 0
-34 29 39 0
-35 75 30 0
-35 75 40 0
-35 30 40 0
-31 -71 -26 -36 0
-32 -72 -27 -37 0
-33 -73 -28 -38 0
-34 -74 -29 -39 0
-35 -75 -30 -40 0
-36 -37 0
-36 -38 0
-36 -39 0
-36 -40 0
-37 -38 0
-37 -39 0
-37 -40 0
-38 -39 0
-38 -40 0
-39 -40 0
-36 76 0
-36 31 0
-37 77 0
-37 32 0
-38 78 0
-38 33 0
-39 79 0
-39 34 0
-40 80 0
-40 35 0
41 0
-42 0
-43 0
-44 0
-45 0
81 1 46 0
-81 -1 0
-81 -46 0
-1 -46 0
-46 -47 0
-46 -48 0
-46 -49 0
-46 -50 0
-47 -48 0
-47 -49 0
-47 -50 0
-48 -49 0
-48 -50 0
-49 -50 0
-46 86 6 51 0
-46 86 6 41 0
-46 86 51 41 0
-46 6 51 41 0
-47 87 7 52 0
-47 87 7 42 0
-47 87 52 42 0
-47 7 52 42 0
-48 88 8 53 0
-48 88 8 43 0
-48 88 53 43 0
-48 8 53 43 0
-49 89 9 54 0
-49 89 9 44 0
-49 89 54 44 0
-49 9 54 44 0
-50 90 10 55 0
-50 90 10 45 0
-50 90 55 45 0
-50 10 55 45 0
-46 -86 -6 -51 0
-46 -86 -6 -41 0
-46 -86 -51 -41 0
-46 -6 -51 -41 0
-47 -87 -7 -52 0
-47 -87 -7 -42 0
-47 -87 -52 -42 0
-47 -7 -52 -42 0
-48 -88 -8 -53 0
-48 -88 -8 -43 0
-48 -88 -53 -43 0
-48 -8 -53 -43 0
-49 -89 -9 -54 0
-49 -89 -9 -44 0
-49 -89 -54 -44 0
-49 -9 -54 -44 0
-50 -90 -10 -55 0
-50 -90 -10 -45 0
-50 -90 -55 -45 0
-50 -10 -55 -45 0
-51 -52 0
-51 -53 0
-51 -54 0
-51 -55 0
-52 -53 0
-52 -54 0
-52 -55 0
-53 -54 0
-53 -55 0
-54 -55 0
-51 91 11 56 0
-51 91 11 46 0
-51 91 56 46 0
-51 11 56 46 0
-52 92 12 57 0
-52 92 12 47 0
-52 92 57 47 0
-52 12 57 47 0
-53 93 13 58 0
-53 93 13 48 0
-53 93 58 48 0
-53 13 58 48 0
-54 94 14 59 0
-54 94 14 49 0
-54 94 59 49 0
-54 14 59 49 0
-55 95 15 60 0
-55 95 15 50 0
-55 95 60 50 0
-55 15 60 50 0
-51 -91 -11 -56 0
-51 -91 -11 -46 0
-51 -91 -56 -46 0
-51 -11 -56 -46 0
-52 -92 -12 -57 0
-52 -92 -12 -47 0
-52 -92 -57 -47 0
-52 -12 -57 -47 0
-53 -93 -13 -58 0
-53 -93 -13 -48 0
-53 -93 -58 -48 0
-53 -13 -58 -48 0
-54 -94 -14 -59 0
-54 -94 -14 -49 0
-54 -94 -59 -49 0
-54 -14 -59 -49 0
-55 -95 -15 -60 0
-55 -95 -15 -50 0
-55 -95 -60 -50 0
-55 -15 -60 -50 0
-56 -57 0
-56 -58 0
-56 -59 0
-56 -60 0
-57 -58 0
-57 -59 0
-57 -60 0
-58 -59 0
-58 -60 0
-59 -60 0
-56 96 16 61 0
-56 96 16 51 0
-56 96 61 51 0
-56 16 61 51 0
-57 97 17 62 0
-57 97 17 52 0
-57 97 62 52 0
-57 17 62 52 0
-58 98 18 63 0
-58 98 18 53 0
-58 98 63 53 0
-58 18 63 53 0
-59 99 19 64 0
-59 99 19 54 0
-59 99 64 54 0
-59 19 64 54 0
-60 100 20 65 0
-60 100 20 55 0
-60 100 65 55 0
-60 20 65 55 0
-56 -96 -16 -61 0
-56 -96 -16 -51 0
-56 -96 -61 -51 0
-56 -16 -61 -51 0
-57 -97 -17 -62 0
-57 -97 -17 -52 0
-57 -97 -62 -52 0
-57 -17 -62 -52 0
-58 -98 -18 -63 0
-58 -98 -18 -53 0
-58 -98 -63 -53 0
-58 -18 -63 -53 0
-59 -99 -19 -64 0
-59 -99 -19 -54 0
-59 -99 -64 -54 0
-59 -19 -64 -54 0
-60 -100 -20 -65 0
-60 -100 -20 -55 0
-60 -100 -65 -55 0
-60 -20 -65 -55 0
-61 -62 0
-61 -63 0
-61 -64 0
-61 -65 0
-62 -63 0
-62 -64 0
-62 -65 0
-63 -64 0
-63 -65 0
-64 -65 0
-61 101 21 66 0
-61 101 21 56 0
-61 101 66 56 0
-61 21 66 56 0
-62 102 22 67 0
-62 102 22 57 0
-62 102 67 57 0
-62 22 67 57 0
-63 103 23 68 0
-63 103 23 58 0
-63 103 68 58 0
-63 23 68 58 0
-64 104 24 69 0
-64 104 24 59 0
-64 104 69 59 0
-64 24 69 59 0
-65 105 25 70 0
-65 105 25 60 0
-65 105 70 60 0
-65 25 70 60 0
-61 -101 -21 -66 0
-61 -101 -21 -56 0
-61 -101 -66 -56 0
-61 -21 -66 -56 0
-62 -102 -22 -67 0
-62 -102 -22 -57 0
-62 -102 -67 -57 0
-62 -22 -67 -57 0
-63 -103 -23 -68 0
-63 -103 -23 -58 0
-63 -103 -68 -58 0
-63 -23 -68 -58 0
-64 -104 -24 -69 0
-64 -104 -24 -59 0
-64 -104 -69 -59 0
-64 -24 -69 -59 0
-65 -105 -25 -70 0
-65 -105 -25 -60 0
-65 -105 -70 -60 0
-65 -25 -70 -60 0
-66 -67 0
-66 -68 0
-66 -69 0
-66 -70 0
-67 -68 0
-67 -69 0
-67 -70 0
-68 -69 0
-68 -70 0
-69 -70 0
-66 106 26 71 0
-66 106 26 61 0
-66 106 71 61 0
-66 26 71 61 0
-67 107 27 72 0
-67 107 27 62 0
-67 107 72 62 0
-67 27 72 62 0
-68 108 28 73 0
-68 108 28 63 0
-68 108 73 63 0
-68 28 73 63 0
-69 109 29 74 0
-69 109 29 64 0
-69 109 74 64 0
-69 29 74 64 0
-70 110 30 75 0
-70 110 30 65 0
-70 110 75 65 0
-70 30 75 65 0
-66 -106 -26 -71 0
-66 -106 -26 -61 0
-66 -106 -71 -61 0
-66 -26 -71 -61 0
-67 -107 -27 -72 0
-67 -107 -27 -62 0
-67 -107 -72 -62 0
-67 -27 -72 -62 0
-68 -108 -28 -73 0
-68 -108 -28 -63 0
-68 -108 -73 -63 0
-68 -28 -73 -63 0
-69 -109 -29 -74 0
-69 -109 -29 -64 0
-69 -109 -74 -64 0
-69 -29 -74 -64 0
-70 -110 -30 -75 0
-70 -110 -30 -65 0
-70 -110 -75 -65 0
-70 -30 -75 -65 0
-71 -72 0
-71 -73 0
-71 -74 0
-71 -75 0
-72 -73 0
-72 -74 0
-72 -75 0
-73 -74 0
-73 -75 0
-74 -75 0
-71 111 31 76 0
-71 111 31 66 0
-71 111 76 66 0
-71 31 76 66 0
-72 112 32 77 0
-72 112 32 67 0
-72 112 77 67 0
-72 32 77 67 0
-73 113 33 78 0
-73 113 33 68 0
-73 113 78 68 0
-73 33 78 68 0
-74 114 34 79 0
-74 114 34 69 0
-74 114 79 69 0
-74 34 79 69 0
-75 115 35 80 0
-75 115 35 70 0
-75 115 80 70 0
-75 35 80 70 0
-71 -111 -31 -76 0
-71 -111 -31 -66 0
-71 -111 -76 -66 0
-71 -31 -76 -66 0
-72 -112 -32 -77 0
-72 -112 -32 -67 0
-72 -112 -77 -67 0
-72 -32 -77 -67 0
-73 -113 -33 -78 0
-73 -113 -33 -68 0
-73 -113 -78 -68 0
-73 -33 -78 -68 0
-74 -114 -34 -79 0
-74 -114 -34 -69 0
-74 -114 -79 -69 0
-74 -34 -79 -69 0
-75 -115 -35 -80 0
-75 -115 -35 -70 0
-75 -115 -80 -70 0
-75 -35 -80 -70 0
-76 -77 0
-76 -78 0
-76 -79 0
-76 -80 0
-77 -78 0
-77 -79 0
-77 -80 0
-78 -79 0
-78 -80 0
-79 -80 0
-76 116 36 0
-76 116 71 0
-76 36 71 0
-77 117 37 0
-77 117 72 0
-77 37 72 0
-78 118 38 0
-78 118 73 0
-78 38 73 0
-79 119 39 0
-79 119 74 0
-79 39 74 0
-80 120 40 0
-80 120 75 0
-80 40 75 0
-76 -116 -36 -71 0
-77 -117 -37 -72 0
-78 -118 -38 -73 0
-79 -119 -39 -74 0
-80 -120 -40 -75 0
-81 -82 0
-81 -83 0
-81 -84 0
-81 -85 0
-82 -83 0
-82 -84 0
-82 -85 0
-83 -84 0
-83 -85 0
-84 -85 0
-81 121 41 0
-81 121 86 0
-81 41 86 0
-82 122 42 0
-82 122 87 0
-82 42 87 0
-83 123 43 0
-83 123 88 0
-83 43 88 0
-84 124 44 0
-84 124 89 0
-84 44 89 0
-85 125 45 0
-85 125 90 0
-85 45 90 0
-81 -121 -41 -86 0
-82 -122 -42 -87 0
-83 -123 -43 -88 0
-84 -124 -44 -89 0
-85 -125 -45 -90 0
-86 -87 0
-86 -88 0
-86 -89 0
-86 -90 0
-87 -88 0
-87 -89 0
-87 -90 0
-88 -89 0
-88 -90 0
-89 -90 0
-86 126 46 91 0
-86 126 46 81 0
-86 126 91 81 0
-86 46 91 81 0
-87 127 47 92 0
-87 127 47 82 0
-87 127 92 82 0
-87 47 92 82 0
-88 128 48 93 0
-88 128 48 83 0
-88 128 93 83 0
-88 48 93 83 0
-89 129 49 94 0
-89 129 49 84 0
-89 129 94 84 0
-89 49 94 84 0
-90 130 50 95 0
-90 130 50 85 0
-90 130 95 85 0
-90 50 95 85 0
-86 -126 -46 -91 0
-86 -126 -46 -81 0
-86 -126 -91 -81 0
-86 -46 -91 -81 0
-87 -127 -47 -92 0
-87 -127 -47 -82 0
-87 -127 -92 -82 0
-87 -47 -92 -82 0
-88 -128 -48 -93 0
-88 -128 -48 -83 0
-88 -128 -93 -83 0
-88 -48 -93 -83 0
-89 -129 -49 -94 0
-89 -129 -49 -84 0
-89 -129 -94 -84 0
-89 -49 -94 -84 0
-90 -130 -50 -95 0
-90 -130 -50 -85 0
-90 -130 -95 -85 0
-90 -50 -95 -85 0
-91 -92 0
-91 -93 0
-91 -94 0
-91 -95 0
-92 -93 0
-92 -94 0
-92 -95 0
-93 -94 0
-93 -95 0
-94 -95 0
-91 131 51 96 0
-91 131 51 86 0
-91 131 96 86 0
-91 51 96 86 0
-92 132 52 97 0
-92 132 52 87 0
-92 132 97 87 0
-92 52 97 87 0
-93 133 53 98 0
-93 133 53 88 0
-93 133 98 88 0
-93 53 98 88 0
-94 134 54 99 0
-94 134 54 89 0
-94 134 99 89 0
-94 54 99 89 0
-95 135 55 100 0
-95 135 55 90 0
-95 135 100 90 0
-95 55 100 90 0
-91 -131 -51 -96 0
-91 -131 -51 -86 0
-91 -131 -96 -86 0
-91 -51 -96 -86 0
-92 -132 -52 -97 0
-92 -132 -52 -87 0
-92 -132 -97 -87 0
-92 -52 -97 -87 0
-93 -133 -53 -98 0
-93 -133 -53 -88 0
-93 -133 -98 -88 0
-93 -53 -98 -88 0
-94 -134 -54 -99 0
-94 -134 -54 -89 0
-94 -134 -99 -89 0
-94 -54 -99 -89 0
-95 -135 -55 -100 0
-95 -135 -55 -90 0
-95 -135 -100 -90 0
-95 -55 -100 -90 0
-96 -97 0
-96 -98 0
-96 -99 0
-96 -100 0
-97 -98 0
-97 -99 0
-97 -100 0
-98 -99 0
-98 -100 0
-99 -100 0
-96 136 56 101 0
-96 136 56 91 0
-96 136 101 91 0
-96 56 101 91 0
-97 137 57 102 0
-97 137 57 92 0
-97 137 102 92 0
-97 57 102 92 0
-98 138 58 103 0
-98 138 58 93 0
-98 138 103 93 0
-98 58 103 93 0
-99 139 59 104 0
-99 139 59 94 0
-99 139 104 94 0
-99 59 104 94 0
-100 140 60 105 0
-100 140 60 95 0
-100 140 105 95 0
-100 60 105 95 0
-96 -136 -56 -101 0
-96 -136 -56 -91 0
-96 -136 -101 -91 0
-96 -56 -101 -91 0
-97 -137 -57 -102 0
-97 -137 -57 -92 0
-97 -137 -102 -92 0
-97 -57 -102 -92 0
-98 -138 -58 -103 0
-98 -138 -58 -93 0
-98 -138 -103 -93 0
-98 -58 -103 -93 0
-99 -139 -59 -104 0
-99 -139 -59 -94 0
-99 -139 -104 -94 0
-99 -59 -104 -94 0
-100 -140 -60 -105 0
-100 -140 -60 -95 0
-100 -140 -105 -95 0
-100 -60 -105 -95 0
-101 -102 0
-101 -103 0
-101 -104 0
-101 -105 0
-102 -103 0
-102 -104 0
-102 -105 0
-103 -104 0
-103 -105 0
-104 -105 0
-101 141 61 106 0
-101 141 61 96 0
-101 141 106 96 0
-101 61 106 96 0
-102 142 62 107 0
-102 142 62 97 0
-102 142 107 97 0
-102 62 107 97 0
-103 143 63 108 0
-103 143 63 98 0
-103 143 108 98 0
-103 63 108 98 0
-104 144 64 109 0
-104 144 64 99 0
-104 144 109 99 0
-104 64 109 99 0
-105 145 65 110 0
-105 145 65 100 0
-105 145 110 100 0
-105 65 110 100 0
-101 -141 -61 -106 0
-101 -141 -61 -96 0
-101 -141 -106 -96 0
-101 -61 -106 -96 0
-102 -142 -62 -107 0
-102 -142 -62 -97 0
-102 -142 -107 -97 0
-102 -62 -107 -97 0
-103 -143 -63 -108 0
-103 -143 -63 -98 0
-103 -143 -108 -98 0
-103 -63 -108 -98 0
-104 -144 -64 -109 0
-104 -144 -64 -99 0
-104 -144 -109 -99 0
-104 -64 -109 -99 0
-105 -145 -65 -110 0
-105 -145 -65 -100 0
-105 -145 -110 -100 0
-105 -65 -110 -100 0
-106 -107 0
-106 -108 0
-106 -109 0
-106 -110 0
-107 -108 0
-107 -109 0
-107 -110 0
-108 -109 0
-108 -110 0
-109 -110 0
-106 146 66 111 0
-106 146 66 101 0
-106 146 111 101 0
-106 66 111 101 0
-107 147 67 112 0
-107 147 67 102 0
-107 147 112 102 0
-107 67 112 102 0
-108 148 68 113 0
-108 148 68 103 0
-108 148 113 103 0
-108 68 113 103 0
-109 149 69 114 0
-109 149 69 104 0
-109 149 114 104 0
-109 69 114 104 0
-110 150 70 115 0
-110 150 70 105 0
-110 150 115 105 0
-110 70 115 105 0
-106 -146 -66 -111 0
-106 -146 -66 -101 0
-106 -146 -111 -101 0
-106 -66 -111 -101 0
-107 -147 -67 -112 0
-107 -147 -67 -102 0
-107 -147 -112 -102 0
-107 -67 -112 -102 0
-108 -148 -68 -113 0
-108 -148 -68 -103 0
-108 -148 -113 -103 0
-108 -68 -113 -103 0
-109 -149 -69 -114 0
-109 -149 -69 -104 0
-109 -149 -114 -104 0
-109 -69 -114 -104 0
-110 -150 -70 -115 0
-110 -150 -70 -105 0
-110 -150 -115 -105 0
-110 -70 -115 -105 0
-111 -112 0
-111 -113 0
-111 -114 0
-111 -115 0
-112 -113 0
-112 -114 0
-112 -115 0
-113 -114 0
-113 -115 0
-114 -115 0
-111 151 71 116 0
-111 151 71 106 0
-111 151 116 106 0
-111 71 116 106 0
-112 152 72 117 0
-112 152 72 107 0
-112 152 117 107 0
-112 72 117 107 0
-113 153 73 118 0
-113 153 73 108 0
-113 153 118 108 0
-113 73 118 108 0
-114 154 74 119 0
-114 154 74 109 0
-114 154 119 109 0
-114 74 119 109 0
-115 155 75 120 0
-115 155 75 110 0
-115 155 120 110 0
-115 75 120 110 0
-111 -151 -71 -116 0
-111 -151 -71 -106 0
-111 -151 -116 -106 0
-111 -71 -116 -106 0
-112 -152 -72 -117 0
-112 -152 -72 -107 0
-112 -152 -117 -107 0
-112 -72 -117 -107 0
-113 -153 -73 -118 0
-113 -153 -73 -108 0
-113 -153 -118 -108 0
-113 -73 -118 -108 0
-114 -154 -74 -119 0
-114 -154 -74 -109 0
-114 -154 -119 -109 0
-114 -74 -119 -109 0
-115 -155 -75 -120 0
-115 -155 -75 -110 0
-115 -155 -120 -110 0
-115 -75 -120 -110 0
-116 -117 0
-116 -118 0
-116 -119 0
-116 -120 0
-117 -118 0
-117 -119 0
-117 -120 0
-118 -119 0
-118 -120 0
-119 -120 0
-116 156 76 0
-116 156 111 0
-116 76 111 0
-117 157 77 0
-117 157 112 0
-117 77 112 0
-118 158 78 0
-118 158 113 0
-118 78 113 0
-119 159 79 0
-119 159 114 0
-119 79 114 0
-120 160 80 0
-120 160 115 0
-120 80 115 0
-116 -156 -76 -111 0
-117 -157 -77 -112 0
-118 -158 -78 -113 0
-119 -159 -79 -114 0
-120 -160 -80 -115 0
-121 -122 0
-121 -123 0
-121 -124 0
-121 -125 0
-122 -123 0
-122 -124 0
-122 -125 0
-123 -124 0
-123 -125 0
-124 -125 0
-121 161 81 0
-121 161 126 0
-121 81 126 0
-122 162 82 0
-122 162 127 0
-122 82 127 0
-123 163 83 0
-123 163 128 0
-123 83 128 0
-124 164 84 0
-124 164 129 0
-124 84 129 0
-125 165 85 0
-125 165 130 0
-125 85 130 0
-121 -161 -81 -126 0
-122 -162 -82 -127 0
-123 -163 -83 -128 0
-124 -164 -84 -129 0
-125 -165 -85 -130 0
-126 -127 0
-126 -128 0
-126 -129 0
-126 -130 0
-127 -128 0
-127 -129 0
-127 -130 0
-128 -129 0
-128 -130 0
-129 -130 0
-126 166 86 131 0
-126 166 86 121 0
-126 166 131 121 0
-126 86 131 121 0
-127 167 87 132 0
-127 167 87 122 0
-127 167 132 122 0
-127 87 132 122 0
-128 168 88 133 0
-128 168 88 123 0
-128 168 133 123 0
-128 88 133 123 0
-129 169 89 134 0
-129 169 89 124 0
-129 169 134 124 0
-129 89 134 124 0
-130 170 90 135 0
-130 170 90 125 0
-130 170 135 125 0
-130 90 135 125 0
-126 -166 -86 -131 0
-126 -166 -86 -121 0
-126 -166 -131 -121 0
-126 -86 -131 -121 0
-127 -167 -87 -132 0
-127 -167 -87 -122 0
-127 -167 -132 -122 0
-127 -87 -132 -122 0
-128 -168 -88 -133 0
-128 -168 -88 -123 0
-128 -168 -133 -123 0
-128 -88 -133 -123 0
-129 -169 -89 -134 0
-129 -169 -89 -124 0
-129 -169 -134 -124 0
-129 -89 -134 -124 0
-130 -170 -90 -135 0
-130 -170 -90 -125 0
-130 -170 -135 -125 0
-130 -90 -135 -125 0
-131 -132 0
-131 -133 0
-131 -134 0
-131 -135 0
-132 -133 0
-132 -134 0
-132 -135 0
-133 -134 0
-133 -135 0
-134 -135 0
-131 171 91 136 0
-131 171 91 126 0
-131 171 136 126 0
-131 91 136 126 0
-132 172 92 137 0
-132 172 92 127 0
-132 172 137 127 0
-132 92 137 127 0
-133 173 93 138 0
-133 173 93 128 0
-133 173 138 128 0
-133 93 138 128 0
-134 174 94 139 0
-134 174 94 129 0
-134 174 139 129 0
-134 94 139 129 0
-135 175 95 140 0
-135 175 95 130 0
-135 175 140 130 0
-135 95 140 130 0
-131 -171 -91 -136 0
-131 -171 -91 -126 0
-131 -171 -136 -126 0
-131 -91 -136 -126 0
-132 -172 -92 -137 0
-132 -172 -92 -127 0
-132 -172 -137 -127 0
-132 -92 -137 -127 0
-133 -173 -93 -138 0
-133 -173 -93 -128 0
-133 -173 -138 -128 0
-133 -93 -138 -128 0
-134 -174 -94 -139 0
-134 -174 -94 -129 0
-134 -174 -139 -129 0
-134 -94 -139 -129 0
-135 -175 -95 -140 0
-135 -175 -95 -130 0
-135 -175 -140 -130 0
-135 -95 -140 -130 0
138 0
-136 0
-137 0
-139 0
-140 0
178 98 143 133 0
-178 -98 0
-178 -143 0
-178 -133 0
-98 -143 0
-98 -133 0
-143 -133 0
-141 -142 0
-141 -143 0
-141 -144 0
-141 -145 0
-142 -143 0
-142 -144 0
-142 -145 0
-143 -144 0
-143 -145 0
-144 -145 0
-141 181 101 146 0
-141 181 101 136 0
-141 181 146 136 0
-141 101 146 136 0
-142 182 102 147 0
-142 182 102 137 0
-142 182 147 137 0
-142 102 147 137 0
-143 183 103 148 0
-143 183 103 138 0
-143 183 148 138 0
-143 103 148 138 0
-144 184 104 149 0
-144 184 104 139 0
-144 184 149 139 0
-144 104 149 139 0
-145 185 105 150 0
-145 185 105 140 0
-145 185 150 140 0
-145 105 150 140 0
-141 -181 -101 -146 0
-141 -181 -101 -136 0
-141 -181 -146 -136 0
-141 -101 -146 -136 0
-142 -182 -102 -147 0
-142 -182 -102 -137 0
-142 -182 -147 -137 0
-142 -102 -147 -137 0
-143 -183 -103 -148 0
-143 -183 -103 -138 0
-143 -183 -148 -138 0
-143 -103 -148 -138 0
-144 -184 -104 -149 0
-144 -184 -104 -139 0
-144 -184 -149 -139 0
-144 -104 -149 -139 0
-145 -185 -105 -150 0
-145 -185 -105 -140 0
-145 -185 -150 -140 0
-145 -105 -150 -140 0
-146 -147 0
-146 -148 0
-146 -149 0
-146 -150 0
-147 -148 0
-147 -149 0
-147 -150 0
-148 -149 0
-148 -150 0
-149 -150 0
-146 186 106 151 0
-146 186 106 141 0
-146 186 151 141 0
-146 106 151 141 0
-147 187 107 152 0
-147 187 107 142 0
-147 187 152 142 0
-147 107 152 142 0
-148 188 108 153 0
-148 188 108 143 0
-148 188 153 143 0
-148 108 153 143 0
-149 189 109 154 0
-149 189 109 144 0
-149 189 154 144 0
-149 109 154 144 0
-150 190 110 155 0
-150 190 110 145 0
-150 190 155 145 0
-150 110 155 145 0
-146 -186 -106 -151 0
-146 -186 -106 -141 0
-146 -186 -151 -141 0
-146 -106 -151 -141 0
-147 -187 -107 -152 0
-147 -187 -107 -142 0
-147 -187 -152 -142 0
-147 -107 -152 -142 0
-148 -188 -108 -153 0
-148 -188 -108 -143 0
-148 -188 -153 -143 0
-148 -108 -153 -143 0
-149 -189 -109 -154 0
-149 -189 -109 -144 0
-149 -189 -154 -144 0
-149 -109 -154 -144 0
-150 -190 -110 -155 0
-150 -190 -110 -145 0
-150 -190 -155 -145 0
-150 -110 -155 -145 0
-151 -152 0
-151 -153 0
-151 -154 0
-151 -155 0
-152 -153 0
-152 -154 0
-152 -155 0
-153 -154 0
-153 -155 0
-154 -155 0
-151 191 111 156 0
-151 191 111 146 0
-151 191 156 146 0
-151 111 156 146 0
-152 192 112 157 0
-152 192 112 147 0
-152 192 157 147 0
-152 112 157 147 0
-153 193 113 158 0
-153 193 113 148 0
-153 193 158 148 0
-153 113 158 148 0
-154 194 114 159 0
-154 194 114 149 0
-154 194 159 149 0
-154 114 159 149 0
-155 195 115 160 0
-155 195 115 150 0
-155 195 160 150 0
-155 115 160 150 0
-151 -191 -111 -156 0
-151 -191 -111 -146 0
-151 -191 -156 -146 0
-151 -111 -156 -146 0
-152 -192 -112 -157 0
-152 -192 -112 -147 0
-152 -192 -157 -147 0
-152 -112 -157 -147 0
-153 -193 -113 -158 0
-153 -193 -113 -148 0
-153 -193 -158 -148 0
-153 -113 -158 -148 0
-154 -194 -114 -159 0
-154 -194 -114 -149 0
-154 -194 -159 -149 0
-154 -114 -159 -149 0
-155 -195 -115 -160 0
-155 -195 -115 -150 0
-155 -195 -160 -150 0
-155 -115 -160 -150 0
-156 -157 0
-156 -158 0
-156 -159 0
-156 -160 0
-157 -158 0
-157 -159 0
-157 -160 0
-158 -159 0
-158 -160 0
-159 -160 0
-156 196 116 0
-156 196 151 0
-156 116 151 0
-157 197 117 0
-157 197 152 0
-157 117 152 0
-158 198 118 0
-158 198 153 0
-158 118 153 0
-159 199 119 0
-159 199 154 0
-159 119 154 0
-160 200 120 0
-160 200 155 0
-160 120 155 0
-156 -196 -116 -151 0
-157 -197 -117 -152 0
-158 -198 -118 -153 0
-159 -199 -119 -154 0
-160 -200 -120 -155 0
-161 -162 0
-161 -163 0
-161 -164 0
-161 -165 0
-162 -163 0
-162 -164 0
-162 -165 0
-163 -164 0
-163 -165 0
-164 -165 0
-161 201 121 0
-161 201 166 0
-161 121 166 0
-162 202 122 0
-162 202 167 0
-162 122 167 0
-163 203 123 0
-163 203 168 0
-163 123 168 0
-164 204 124 0
-164 204 169 0
-164 124 169 0
-165 205 125 0
-165 205 170 0
-165 125 170 0
-161 -201 -121 -166 0
-162 -202 -122 -167 0
-163 -203 -123 -168 0
-164 -204 -124 -169 0
-165 -205 -125 -170 0
-166 -167 0
-166 -168 0
-166 -169 0
-166 -170 0
-167 -168 0
-167 -169 0
-167 -170 0
-168 -169 0
-168 -170 0
-169 -170 0
-166 206 126 171 0
-166 206 126 161 0
-166 206 171 161 0
-166 126 171 161 0
-167 207 127 172 0
-167 207 127 162 0
-167 207 172 162 0
-167 127 172 162 0
-168 208 128 173 0
-168 208 128 163 0
-168 208 173 163 0
-168 128 173 163 0
-169 209 129 174 0
-169 209 129 164 0
-169 209 174 164 0
-169 129 174 164 0
-170 210 130 175 0
-170 210 130 165 0
-170 210 175 165 0
-170 130 175 165 0
-166 -206 -126 -171 0
-166 -206 -126 -161 0
-166 -206 -171 -161 0
-166 -126 -171 -161 0
-167 -207 -127 -172 0
-167 -207 -127 -162 0
-167 -207 -172 -162 0
-167 -127 -172 -162 0
-168 -208 -128 -173 0
-168 -208 -128 -163 0
-168 -208 -173 -163 0
-168 -128 -173 -163 0
-169 -209 -129 -174 0
-169 -209 -129 -164 0
-169 -209 -174 -164 0
-169 -129 -174 -164 0
-170 -210 -130 -175 0
-170 -210 -130 -165 0
-170 -210 -175 -165 0
-170 -130 -175 -165 0
175 0
-171 0
-172 0
-173 0
-174 0
215 135 180 170 0
-215 -135 0
-215 -180 0
-215 -170 0
-135 -180 0
-135 -170 0
-180 -170 0
179 0
-176 0
-177 0
-178 0
-180 0
219 139 184 174 0
-219 -139 0
-219 -184 0
-219 -174 0
-139 -184 0
-139 -174 0
-184 -174 0
-181 -182 0
-181 -183 0
-181 -184 0
-181 -185 0
-182 -183 0
-182 -184 0
-182 -185 0
-183 -184 0
-183 -185 0
-184 -185 0
-181 221 141 186 0
-181 221 141 176 0
-181 221 186 176 0
-181 141 186 176 0
-182 222 142 187 0
-182 222 142 177 0
-182 222 187 177 0
-182 142 187 177 0
-183 223 143 188 0
-183 223 143 178 0
-183 223 188 178 0
-183 143 188 178 0
-184 224 144 189 0
-184 224 144 179 0
-184 224 189 179 0
-184 144 189 179 0
-185 225 145 190 0
-185 225 145 180 0
-185 225 190 180 0
-185 145 190 180 0
-181 -221 -141 -186 0
-181 -221 -141 -176 0
-181 -221 -186 -176 0
-181 -141 -186 -176 0
-182 -222 -142 -187 0
-182 -222 -142 -177 0
-182 -222 -187 -177 0
-182 -142 -187 -177 0
-183 -223 -143 -188 0
-183 -223 -143 -178 0
-183 -223 -188 -178 0
-183 -143 -188 -178 0
-184 -224 -144 -189 0
-184 -224 -144 -179 0
-184 -224 -189 -179 0
-184 -144 -189 -179 0
-185 -225 -145 -190 0
-185 -225 -145 -180 0
-185 -225 -190 -180 0
-185 -145 -190 -180 0
187 0
-186 0
-188 0
-189 0
-190 0
227 147 192 182 0
-227 -147 0
-227 -192 0
-227 -182 0
-147 -192 0
-147 -182 0
-192 -182 0
-191 -192 0
-191 -193 0
-191 -194 0
-191 -195 0
-192 -193 0
-192 -194 0
-192 -195 0
-193 -194 0
-193 -195 0
-194 -195 0
-191 231 151 196 0
-191 231 151 186 0
-191 231 196 186 0
-191 151 196 186 0
-192 232 152 197 0
-192 232 152 187 0
-192 232 197 187 0
-192 152 197 187 0
-193 233 153 198 0
-193 233 153 188 0
-193 233 198 188 0
-193 153 198 188 0
-194 234 154 199 0
-194 234 154 189 0
-194 234 199 189 0
-194 154 199 189 0
-195 235 155 200 0
-195 235 155 190 0
-195 235 200 190 0
-195 155 200 190 0
-191 -231 -151 -196 0
-191 -231 -151 -186 0
-191 -231 -196 -186 0
-191 -151 -196 -186 0
-192 -232 -152 -197 0
-192 -232 -152 -187 0
-192 -232 -197 -187 0
-192 -152 -197 -187 0
-193 -233 -153 -198 0
-193 -233 -153 -188 0
-193 -233 -198 -188 0
-193 -153 -198 -188 0
-194 -234 -154 -199 0
-194 -234 -154 -189 0
-194 -234 -199 -189 0
-194 -154 -199 -189 0
-195 -235 -155 -200 0
-195 -235 -155 -190 0
-195 -235 -200 -190 0
-195 -155 -200 -190 0
-196 -197 0
-196 -198 0
-196 -199 0
-196 -200 0
-197 -198 0
-197 -199 0
-197 -200 0
-198 -199 0
-198 -200 0
-199 -200 0
-196 236 156 0
-196 236 191 0
-196 156 191 0
-197 237 157 0
-197 237 192 0
-197 157 192 0
-198 238 158 0
-198 238 193 0
-198 158 193 0
-199 239 159 0
-199 239 194 0
-199 159 194 0
-200 240 160 0
-200 240 195 0
-200 160 195 0
-196 -236 -156 -191 0
-197 -237 -157 -192 0
-198 -238 -158 -193 0
-199 -239 -159 -194 0
-200 -240 -160 -195 0
204 0
-201 0
-202 0
-203 0
-205 0
244 164 209 0
-244 -164 0
-244 -209 0
-164 -209 0
-206 -207 0
-206 -208 0
-206 -209 0
-206 -210 0
-207 -208 0
-207 -209 0
-207 -210 0
-208 -209 0
-208 -210 0
-209 -210 0
-206 246 166 211 0
-206 246 166 201 0
-206 246 211 201 0
-206 166 211 201 0
-207 247 167 212 0
-207 247 167 202 0
-207 247 212 202 0
-207 167 212 202 0
-208 248 168 213 0
-208 248 168 203 0
-208 248 213 203 0
-208 168 213 203 0
-209 249 169 214 0
-209 249 169 204 0
-209 249 214 204 0
-209 169 214 204 0
-210 250 170 215 0
-210 250 170 205 0
-210 250 215 205 0
-210 170 215 205 0
-206 -246 -166 -211 0
-206 -246 -166 -201 0
-206 -246 -211 -201 0
-206 -166 -211 -201 0
-207 -247 -167 -212 0
-207 -247 -167 -202 0
-207 -247 -212 -202 0
-207 -167 -212 -202 0
-208 -248 -168 -213 0
-208 -248 -168 -203 0
-208 -248 -213 -203 0
-208 -168 -213 -203 0
-209 -249 -169 -214 0
-209 -249 -169 -204 0
-209 -249 -214 -204 0
-209 -169 -214 -204 0
-210 -250 -170 -215 0
-210 -250 -170 -205 0
-210 -250 -215 -205 0
-210 -170 -215 -205 0
-211 -212 0
-211 -213 0
-211 -214 0
-211 -215 0
-212 -213 0
-212 -214 0
-212 -215 0
-213 -214 0
-213 -215 0
-214 -215 0
-211 251 171 216 0
-211 251 171 206 0
-211 251 216 206 0
-211 171 216 206 0
-212 252 172 217 0
-212 252 172 207 0
-212 252 217 207 0
-212 172 217 207 0
-213 253 173 218 0
-213 253 173 208 0
-213 253 218 208 0
-213 173 218 208 0
-214 254 174 219 0
-214 254 174 209 0
-214 254 219 209 0
-214 174 219 209 0
-215 255 175 220 0
-215 255 175 210 0
-215 255 220 210 0
-215 175 220 210 0
-211 -251 -171 -216 0
-211 -251 -171 -206 0
-211 -251 -216 -206 0
-211 -171 -216 -206 0
-212 -252 -172 -217 0
-212 -252 -172 -207 0
-212 -252 -217 -207 0
-212 -172 -217 -207 0
-213 -253 -173 -218 0
-213 -253 -173 -208 0
-213 -253 -218 -208 0
-213 -173 -218 -208 0
-214 -254 -174 -219 0
-214 -254 -174 -209 0
-214 -254 -219 -209 0
-214 -174 -219 -209 0
-215 -255 -175 -220 0
-215 -255 -175 -210 0
-215 -255 -220 -210 0
-215 -175 -220 -210 0
-216 -217 0
-216 -218 0
-216 -219 0
-216 -220 0
-217 -218 0
-217 -219 0
-217 -220 0
-218 -219 0
-218 -220 0
-219 -220 0
-216 256 176 221 0
-216 256 176 211 0
-216 256 221 211 0
-216 176 221 211 0
-217 257 177 222 0
-217 257 177 212 0
-217 257 222 212 0
-217 177 222 212 0
-218 258 178 223 0
-218 258 178 213 0
-218 258 223 213 0
-218 178 223 213 0
-219 259 179 224 0
-219 259 179 214 0
-219 259 224 214 0
-219 179 224 214 0
-220 260 180 225 0
-220 260 180 215 0
-220 260 225 215 0
-220 180 225 215 0
-216 -256 -176 -221 0
-216 -256 -176 -211 0
-216 -256 -221 -211 0
-216 -176 -221 -211 0
-217 -257 -177 -222 0
-217 -257 -177 -212 0
-217 -257 -222 -212 0
-217 -177 -222 -212 0
-218 -258 -178 -223 0
-218 -258 -178 -213 0
-218 -258 -223 -213 0
-218 -178 -223 -213 0
-219 -259 -179 -224 0
-219 -259 -179 -214 0
-219 -259 -224 -214 0
-219 -179 -224 -214 0
-220 -260 -180 -225 0
-220 -260 -180 -215 0
-220 -260 -225 -215 0
-220 -180 -225 -215 0
-221 -222 0
-221 -223 0
-221 -224 0
-221 -225 0
-222 -223 0
-222 -224 0
-222 -225 0
-223 -224 0
-223 -225 0
-224 -225 0
-221 261 181 226 0
-221 261 181 216 0
-221 261 226 216 0
-221 181 226 216 0
-222 262 182 227 0
-222 262 182 217 0
-222 262 227 217 0
-222 182 227 217 0
-223 263 183 228 0
-223 263 183 218 0
-223 263 228 218 0
-223 183 228 218 0
-224 264 184 229 0
-224 264 184 219 0
-224 264 229 219 0
-224 184 229 219 0
-225 265 185 230 0
-225 265 185 220 0
-225 265 230 220 0
-225 185 230 220 0
-221 -261 -181 -226 0
-221 -261 -181 -216 0
-221 -261 -226 -216 0
-221 -181 -226 -216 0
-222 -262 -182 -227 0
-222 -262 -182 -217 0
-222 -262 -227 -217 0
-222 -182 -227 -217 0
-223 -263 -183 -228 0
-223 -263 -183 -218 0
-223 -263 -228 -218 0
-223 -183 -228 -218 0
-224 -264 -184 -229 0
-224 -264 -184 -219 0
-224 -264 -229 -219 0
-224 -184 -229 -219 0
-225 -265 -185 -230 0
-225 -265 -185 -220 0
-225 -265 -230 -220 0
-225 -185 -230 -220 0
228 0
-226 0
-227 0
-229 0
-230 0
268 188 233 223 0
-268 -188 0
-268 -233 0
-268 -223 0
-188 -233 0
-188 -223 0
-233 -223 0
-231 -232 0
-231 -233 0
-231 -234 0
-231 -235 0
-232 -233 0
-232 -234 0
-232 -235 0
-233 -234 0
-233 -235 0
-234 -235 0
-231 271 191 236 0
-231 271 191 226 0
-231 271 236 226 0
-231 191 236 226 0
-232 272 192 237 0
-232 272 192 227 0
-232 272 237 227 0
-232 192 237 227 0
-233 273 193 238 0
-233 273 193 228 0
-233 273 238 228 0
-233 193 238 228 0
-234 274 194 239 0
-234 274 194 229 0
-234 274 239 229 0
-234 194 239 229 0
-235 275 195 240 0
-235 275 195 230 0
-235 275 240 230 0
-235 195 240 230 0
-231 -271 -191 -236 0
-231 -271 -191 -226 0
-231 -271 -236 -226 0
-231 -191 -236 -226 0
-232 -272 -192 -237 0
-232 -272 -192 -227 0
-232 -272 -237 -227 0
-232 -192 -237 -227 0
-233 -273 -193 -238 0
-233 -273 -193 -228 0
-233 -273 -238 -228 0
-233 -193 -238 -228 0
-234 -274 -194 -239 0
-234 -274 -194 -229 0
-234 -274 -239 -229 0
-234 -194 -239 -229 0
-235 -275 -195 -240 0
-235 -275 -195 -230 0
-235 -275 -240 -230 0
-235 -195 -240 -230 0
-236 -237 0
-236 -238 0
-236 -239 0
-236 -240 0
-237 -238 0
-237 -239 0
-237 -240 0
-238 -239 0
-238 -240 0
-239 -240 0
-236 276 196 0
-236 276 231 0
-236 196 231 0
-237 277 197 0
-237 277 232 0
-237 197 232 0
-238 278 198 0
-238 278 233 0
-238 198 233 0
-239 279 199 0
-239 279 234 0
-239 199 234 0
-240 280 200 0
-240 280 235 0
-240 200 235 0
-236 -276 -196 -231 0
-237 -277 -197 -232 0
-238 -278 -198 -233 0
-239 -279 -199 -234 0
-240 -280 -200 -235 0
242 0
-241 0
-243 0
-244 0
-245 0
282 202 247 0
-282 -202 0
-282 -247 0
-202 -247 0
-246 -247 0
-246 -248 0
-246 -249 0
-246 -250 0
-247 -248 0
-247 -249 0
-247 -250 0
-248 -249 0
-248 -250 0
-249 -250 0
-246 286 206 251 0
-246 286 206 241 0
-246 286 251 241 0
-246 206 251 241 0
-247 287 207 252 0
-247 287 207 242 0
-247 287 252 242 0
-247 207 252 242 0
-248 288 208 253 0
-248 288 208 243 0
-248 288 253 243 0
-248 208 253 243 0
-249 289 209 254 0
-249 289 209 244 0
-249 289 254 244 0
-249 209 254 244 0
-250 290 210 255 0
-250 290 210 245 0
-250 290 255 245 0
-250 210 255 245 0
-246 -286 -206 -251 0
-246 -286 -206 -241 0
-246 -286 -251 -241 0
-246 -206 -251 -241 0
-247 -287 -207 -252 0
-247 -287 -207 -242 0
-247 -287 -252 -242 0
-247 -207 -252 -242 0
-248 -288 -208 -253 0
-248 -288 -208 -243 0
-248 -288 -253 -243 0
-248 -208 -253 -243 0
-249 -289 -209 -254 0
-249 -289 -209 -244 0
-249 -289 -254 -244 0
-249 -209 -254 -244 0
-250 -290 -210 -255 0
-250 -290 -210 -245 0
-250 -290 -255 -245 0
-250 -210 -255 -245 0
255 0
-251 0
-252 0
-253 0
-254 0
295 215 260 250 0
-295 -215 0
-295 -260 0
-295 -250 0
-215 -260 0
-215 -250 0
-260 -250 0
-256 -257 0
-256 -258 0
-256 -259 0
-256 -260 0
-257 -258 0
-257 -259 0
-257 -260 0
-258 -259 0
-258 -260 0
-259 -260 0
-256 296 216 261 0
-256 296 216 251 0
-256 296 261 251 0
-256 216 261 251 0
-257 297 217 262 0
-257 297 217 252 0
-257 297 262 252 0
-257 217 262 252 0
-258 298 218 263 0
-258 298 218 253 0
-258 298 263 253 0
-258 218 263 253 0
-259 299 219 264 0
-259 299 219 254 0
-259 299 264 254 0
-259 219 264 254 0
-260 300 220 265 0
-260 300 220 255 0
-260 300 265 255 0
-260 220 265 255 0
-256 -296 -216 -261 0
-256 -296 -216 -251 0
-256 -296 -261 -251 0
-256 -216 -261 -251 0
-257 -297 -217 -262 0
-257 -297 -217 -252 0
-257 -297 -262 -252 0
-257 -217 -262 -252 0
-258 -298 -218 -263 0
-258 -298 -218 -253 0
-258 -298 -263 -253 0
-258 -218 -263 -253 0
-259 -299 -219 -264 0
-259 -299 -219 -254 0
-259 -299 -264 -254 0
-259 -219 -264 -254 0
-260 -300 -220 -265 0
-260 -300 -220 -255 0
-260 -300 -265 -255 0
-260 -220 -265 -255 0
-261 -262 0
-261 -263 0
-261 -264 0
-261 -265 0
-262 -263 0
-262 -264 0
-262 -265 0
-263 -264 0
-263 -265 0
-264 -265 0
-261 301 221 266 0
-261 301 221 256 0
-261 301 266 256 0
-261 221 266 256 0
-262 302 222 267 0
-262 302 222 257 0
-262 302 267 257 0
-262 222 267 257 0
-263 303 223 268 0
-263 303 223 258 0
-263 303 268 258 0
-263 223 268 258 0
-264 304 224 269 0
-264 304 224 259 0
-264 304 269 259 0
-264 224 269 259 0
-265 305 225 270 0
-265 305 225 260 0
-265 305 270 260 0
-265 225 270 260 0
-261 -301 -221 -266 0
-261 -301 -221 -256 0
-261 -301 -266 -256 0
-261 -221 -266 -256 0
-262 -302 -222 -267 0
-262 -302 -222 -257 0
-262 -302 -267 -257 0
-262 -222 -267 -257 0
-263 -303 -223 -268 0
-263 -303 -223 -258 0
-263 -303 -268 -258 0
-263 -223 -268 -258 0
-264 -304 -224 -269 0
-264 -304 -224 -259 0
-264 -304 -269 -259 0
-264 -224 -269 -259 0
-265 -305 -225 -270 0
-265 -305 -225 -260 0
-265 -305 -270 -260 0
-265 -225 -270 -260 0
-266 -267 0
-266 -268 0
-266 -269 0
-266 -270 0
-267 -268 0
-267 -269 0
-267 -270 0
-268 -269 0
-268 -270 0
-269 -270 0
-266 306 226 271 0
-266 306 226 261 0
-266 306 271 261 0
-266 226 271 261 0
-267 307 227 272 0
-267 307 227 262 0
-267 307 272 262 0
-267 227 272 262 0
-268 308 228 273 0
-268 308 228 263 0
-268 308 273 263 0
-268 228 273 263 0
-269 309 229 274 0
-269 309 229 264 0
-269 309 274 264 0
-269 229 274 264 0
-270 310 230 275 0
-270 310 230 265 0
-270 310 275 265 0
-270 230 275 265 0
-266 -306 -226 -271 0
-266 -306 -226 -261 0
-266 -306 -271 -261 0
-266 -226 -271 -261 0
-267 -307 -227 -272 0
-267 -307 -227 -262 0
-267 -307 -272 -262 0
-267 -227 -272 -262 0
-268 -308 -228 -273 0
-268 -308 -228 -263 0
-268 -308 -273 -263 0
-268 -228 -273 -263 0
-269 -309 -229 -274 0
-269 -309 -229 -264 0
-269 -309 -274 -264 0
-269 -229 -274 -264 0
-270 -310 -230 -275 0
-270 -310 -230 -265 0
-270 -310 -275 -265 0
-270 -230 -275 -265 0
-271 -272 0
-271 -273 0
-271 -274 0
-271 -275 0
-272 -273 0
-272 -274 0
-272 -275 0
-273 -274 0
-273 -275 0
-274 -275 0
-271 311 231 276 0
-271 311 231 266 0
-271 311 276 266 0
-271 231 276 266 0
-272 312 232 277 0
-272 312 232 267 0
-272 312 277 267 0
-272 232 277 267 0
-273 313 233 278 0
-273 313 233 268 0
-273 313 278 268 0
-273 233 278 268 0
-274 314 234 279 0
-274 314 234 269 0
-274 314 279 269 0
-274 234 279 269 0
-275 315 235 280 0
-275 315 235 270 0
-275 315 280 270 0
-275 235 280 270 0
-271 -311 -231 -276 0
-271 -311 -231 -266 0
-271 -311 -276 -266 0
-271 -231 -276 -266 0
-272 -312 -232 -277 0
-272 -312 -232 -267 0
-272 -312 -277 -267 0
-272 -232 -277 -267 0
-273 -313 -233 -278 0
-273 -313 -233 -268 0
-273 -313 -278 -268 0
-273 -233 -278 -268 0
-274 -314 -234 -279 0
-274 -314 -234 -269 0
-274 -314 -279 -269 0
-274 -234 -279 -269 0
-275 -315 -235 -280 0
-275 -315 -235 -270 0
-275 -315 -280 -270 0
-275 -235 -280 -270 0
-276 -277 0
-276 -278 0
-276 -279 0
-276 -280 0
-277 -278 0
-277 -279 0
-277 -280 0
-278 -279 0
-278 -280 0
-279 -280 0
-276 316 236 0
-276 316 271 0
-276 236 271 0
-277 317 237 0
-277 317 272 0
-277 237 272 0
-278 318 238 0
-278 318 273 0
-278 238 273 0
-279 319 239 0
-279 319 274 0
-279 239 274 0
-280 320 240 0
-280 320 275 0
-280 240 275 0
-276 -316 -236 -271 0
-277 -317 -237 -272 0
-278 -318 -238 -273 0
-279 -319 -239 -274 0
-280 -320 -240 -275 0
281 0
-282 0
-283 0
-284 0
-285 0
241 286 0
-241 -286 0
-286 -287 0
-286 -288 0
-286 -289 0
-286 -290 0
-287 -288 0
-287 -289 0
-287 -290 0
-288 -289 0
-288 -290 0
-289 -290 0
-286 281 246 0
-286 246 291 0
-286 281 291 0
-287 282 247 0
-287 247 292 0
-287 282 292 0
-288 283 248 0
-288 248 293 0
-288 283 293 0
-289 284 249 0
-289 249 294 0
-289 284 294 0
-290 285 250 0
-290 250 295 0
-290 285 295 0
-286 -246 -281 -291 0
-287 -247 -282 -292 0
-288 -248 -283 -293 0
-289 -249 -284 -294 0
-290 -250 -285 -295 0
-291 -292 0
-291 -293 0
-291 -294 0
-291 -295 0
-292 -293 0
-292 -294 0
-292 -295 0
-293 -294 0
-293 -295 0
-294 -295 0
-291 286 251 0
-291 251 296 0
-291 286 296 0
-292 287 252 0
-292 252 297 0
-292 287 297 0
-293 288 253 0
-293 253 298 0
-293 288 298 0
-294 289 254 0
-294 254 299 0
-294 289 299 0
-295 290 255 0
-295 255 300 0
-295 290 300 0
-291 -251 -286 -296 0
-292 -252 -287 -297 0
-293 -253 -288 -298 0
-294 -254 -289 -299 0
-295 -255 -290 -300 0
-296 -297 0
-296 -298 0
-296 -299 0
-296 -300 0
-297 -298 0
-297 -299 0
-297 -300 0
-298 -299 0
-298 -300 0
-299 -300 0
-296 291 256 0
-296 256 301 0
-296 291 301 0
-297 292 257 0
-297 257 302 0
-297 292 302 0
-298 293 258 0
-298 258 303 0
-298 293 303 0
-299 294 259 0
-299 259 304 0
-299 294 304 0
-300 295 260 0
-300 260 305 0
-300 295 305 0
-296 -256 -291 -301 0
-297 -257 -292 -302 0
-298 -258 -293 -303 0
-299 -259 -294 -304 0
-300 -260 -295 -305 0
-301 -302 0
-301 -303 0
-301 -304 0
-301 -305 0
-302 -303 0
-302 -304 0
-302 -305 0
-303 -304 0
-303 -305 0
-304 -305 0
-301 296 261 0
-301 261 306 0
-301 296 306 0
-302 297 262 0
-302 262 307 0
-302 297 307 0
-303 298 263 0
-303 263 308 0
-303 298 308 0
-304 299 264 0
-304 264 309 0
-304 299 309 0
-305 300 265 0
-305 265 310 0
-305 300 310 0
-301 -261 -296 -306 0
-302 -262 -297 -307 0
-303 -263 -298 -308 0
-304 -264 -299 -309 0
-305 -265 -300 -310 0
-306 -307 0
-306 -308 0
-306 -309 0
-306 -310 0
-307 -308 0
-307 -309 0
-307 -310 0
-308 -309 0
-308 -310 0
-309 -310 0
-306 301 266 0
-306 266 311 0
-306 301 311 0
-307 302 267 0
-307 267 312 0
-307 302 312 0
-308 303 268 0
-308 268 313 0
-308 303 313 0
-309 304 269 0
-309 269 314 0
-309 304 314 0
-310 305 270 0
-310 270 315 0
-310 305 315 0
-306 -266 -301 -311 0
-307 -267 -302 -312 0
-308 -268 -303 -313 0
-309 -269 -304 -314 0
-310 -270 -305 -315 0
-311 -312 0
-311 -313 0
-311 -314 0
-311 -315 0
-312 -313 0
-312 -314 0
-312 -315 0
-313 -314 0
-313 -315 0
-314 -315 0
-311 306 271 0
-311 271 316 0
-311 306 316 0
-312 307 272 0
-312 272 317 0
-312 307 317 0
-313 308 273 0
-313 273 318 0
-313 308 318 0
-314 309 274 0
-314 274 319 0
-314 309 319 0
-315 310 275 0
-315 275 320 0
-315 310 320 0
-311 -271 -306 -316 0
-312 -272 -307 -317 0
-313 -273 -308 -318 0
-314 -274 -309 -319 0
-315 -275 -310 -320 0
-316 -317 0
-316 -318 0
-316 -319 0
-316 -320 0
-317 -318 0
-317 -319 0
-317 -320 0
-318 -319 0
-318 -320 0
-319 -320 0
-316 276 0
-316 311 0
-317 277 0
-317 312 0
-318 278 0
-318 313 0
-319 279 0
-319 314 0
-320 280 0
-320 315 0
81 86 91 96 101 106 111 116 0
121 126 131 141 146 151 156 0
161 166 181 191 196 0
206 211 216 221 231 236 0
246 256 261 266 271 276 0
207 212 217 222 232 237 0
7 47 87 127 167 207 247 287 0
12 52 92 132 212 292 0
17 57 97 217 257 297 0
22 62 102 142 182 222 262 302 0
163 168 183 193 198 0
23 63 103 143 183 223 263 303 0
9 49 89 129 169 209 249 289 0
14 54 94 134 214 294 0
210 215 220 225 235 240 0